; benchmark generated from python API
(set-info :status unknown)
(declare-datatypes ((RealState 0)) (((RMk1 (rval1 Real)) (RMk2 (rval2 Real)))))
 (assert
 (forall ((|v17:0| Real) )(forall ((|v16:1| Real) )(forall ((|v15:2| Real) )(forall ((|v14:3| Real) )(forall ((|v13:4| Real) )(forall ((|v12:5| Real) )(exists ((|v11:6_st| RealState) (val!7332 Real) )(exists ((|v10:7_st| RealState) (val!7333 Real) )(exists ((|v9:8_st| RealState) (val!7334 Real) )(exists ((|v8:9_st| RealState) (val!7335 Real) )(exists ((|v7:10_st| RealState) (val!7336 Real) )(exists ((|v6:11_st| RealState) (val!7337 Real) )(forall ((|v5:12| Real) )(forall ((|v4:13| Real) )(forall ((|v3:14| Real) )(forall ((|v2:15| Real) )(forall ((|v1:16| Real) )(forall ((|v0:17| Real) )(let ((?x1782 (- 20.0)))
 (let ((?x3079 (rval2 |v9:8_st|)))
 (let ((?x1852 (* 16.0 ?x3079)))
 (let (($x3409 (<= (+ (+ (+ (* 5.0 |v3:14|) (* 13.0 |v14:3|)) (* 11.0 |v3:14|)) ?x1852) ?x1782)))
 (let ((?x1138 (- 8.0)))
 (let ((?x1283 (* ?x1138 |v13:4|)))
 (let ((?x1409 (+ (+ (+ (* (- 17.0) ?x3079) (* 9.0 |v2:15|)) (* 17.0 |v12:5|)) ?x1283)))
 (let ((?x2992 (- 16.0)))
 (let ((?x539 (- 7.0)))
 (let ((?x767 (* ?x539 |v3:14|)))
 (let ((?x436 (+ ?x767 ?x767)))
 (let ((?x270 (+ (+ ?x436 (* (- 9.0) (rval2 |v7:10_st|))) (* (- 14.0) (rval2 |v6:11_st|)))))
 (let ((?x3426 (- 17.0)))
 (let ((?x527 (- 13.0)))
 (let ((?x774 (* ?x527 |v2:15|)))
 (let ((?x1887 (* 14.0 |v1:16|)))
 (let ((?x1869 (+ (+ (+ (* 3.0 (rval2 |v8:9_st|)) (* 16.0 (rval2 |v7:10_st|))) ?x1887) ?x774)))
 (let (($x2026 (<= (+ (+ (+ (* (- 12.0) |v13:4|) |v13:4|) (* ?x527 |v5:12|)) (* ?x527 |v3:14|)) ?x539)))
 (let ((?x1527 (* 11.0 |v4:13|)))
 (let ((?x3137 (+ (+ (+ (* 13.0 ?x3079) (* (- 15.0) |v14:3|)) (* 9.0 |v3:14|)) ?x1527)))
 (let ((?x1903 (- 14.0)))
 (let ((?x2950 (* 20.0 |v2:15|)))
 (let (($x693 (<= (+ (+ (+ (rval2 |v11:6_st|) (* 6.0 |v0:17|)) (* 5.0 |v15:2|)) ?x2950) ?x1903)))
 (let (($x440 (and (and (and $x693 (<= ?x3137 3.0)) $x2026) (or (or (<= ?x1869 ?x3426) (<= ?x270 ?x2992)) (or (<= ?x1409 1.0) $x3409)))))
 (let ((?x2615 (+ (+ (* 6.0 (rval2 |v11:6_st|)) (* ?x539 |v12:5|)) (* 20.0 (rval2 |v6:11_st|)))))
 (let ((?x171 (- 10.0)))
 (let ((?x969 (* 8.0 |v13:4|)))
 (let ((?x2203 (+ (+ (+ (* 14.0 ?x3079) (* (- 2.0) |v2:15|)) (* 0.0 (rval2 |v6:11_st|))) ?x969)))
 (let ((?x398 (* 3.0 |v14:3|)))
 (let ((?x2678 (+ (+ (+ (* 6.0 |v5:12|) (* (- 3.0) (rval2 |v6:11_st|))) (* 20.0 |v5:12|)) ?x398)))
 (let ((?x485 (- 18.0)))
 (let ((?x1857 (* 14.0 |v5:12|)))
 (let ((?x2877 (+ (+ (+ (* 18.0 |v2:15|) (* (- 1.0) |v0:17|)) (* ?x171 (rval2 |v6:11_st|))) ?x1857)))
 (let (($x2625 (and (and (<= ?x2877 ?x485) (<= ?x2678 6.0)) (or (<= ?x2203 ?x171) (<= (+ ?x2615 (* ?x1782 |v14:3|)) 17.0)))))
 (let ((?x1041 (- 6.0)))
 (let ((?x253 (* 10.0 |v17:0|)))
 (let ((?x1043 (+ (+ (* 11.0 (rval2 |v7:10_st|)) (* 16.0 (rval2 |v10:7_st|))) (* 0.0 (rval2 |v11:6_st|)))))
 (let ((?x1950 (- 3.0)))
 (let ((?x87 (* ?x1950 |v2:15|)))
 (let ((?x424 (rval2 |v7:10_st|)))
 (let ((?x1264 (* 20.0 ?x424)))
 (let (($x78 (<= (+ (+ (+ (* (- 11.0) |v17:0|) (* ?x3426 (rval2 |v8:9_st|))) ?x1264) ?x87) ?x1782)))
 (let ((?x845 (- 5.0)))
 (let ((?x1511 (* ?x3426 |v1:16|)))
 (let (($x1402 (<= (+ (+ (+ (* ?x171 |v17:0|) (* ?x1782 |v3:14|)) (* (- 1.0) |v16:1|)) ?x1511) ?x845)))
 (let ((?x2976 (* 10.0 |v12:5|)))
 (let ((?x2567 (+ (+ (+ (* (- 12.0) |v12:5|) (* 2.0 |v5:12|)) (* 18.0 ?x424)) ?x2976)))
 (let (($x322 (and (and (<= ?x2567 18.0) $x1402) (and $x78 (<= (+ ?x1043 ?x253) ?x1041)))))
 (let ((?x210 (rval2 |v10:7_st|)))
 (let ((?x1275 (* 2.0 ?x210)))
 (let ((?x1619 (+ (+ (+ (* 10.0 |v3:14|) (* (- 2.0) |v4:13|)) (* 3.0 (rval2 |v6:11_st|))) ?x1275)))
 (let ((?x1925 (+ (+ (+ (* 6.0 |v17:0|) (* 17.0 ?x3079)) (* (- 4.0) |v2:15|)) (* ?x1782 |v13:4|))))
 (let ((?x356 (- 12.0)))
 (let ((?x2214 (- 19.0)))
 (let ((?x3154 (* ?x2214 |v4:13|)))
 (let (($x3158 (<= (+ (+ (+ (* ?x1041 |v1:16|) (* 15.0 |v14:3|)) (* 4.0 |v1:16|)) ?x3154) ?x356)))
 (let ((?x1770 (+ (+ (+ (* 4.0 |v17:0|) (* ?x1782 (rval2 |v8:9_st|))) (* 7.0 |v5:12|)) (* (- 1.0) ?x3079))))
 (let ((?x947 (+ (+ (+ (* ?x539 |v4:13|) (* ?x1782 (rval2 |v8:9_st|))) (* 8.0 (rval2 |v8:9_st|))) (* (- 4.0) (rval2 |v11:6_st|)))))
 (let ((?x2650 (- 15.0)))
 (let ((?x659 (* 13.0 |v5:12|)))
 (let ((?x2714 (+ (+ (* 14.0 |v2:15|) (* 10.0 |v2:15|)) ?x659)))
 (let ((?x1967 (+ (+ (* (- 4.0) (rval2 |v6:11_st|)) (* 9.0 |v12:5|)) (* (- 2.0) |v12:5|))))
 (let (($x3029 (or (<= (+ ?x1967 (* 8.0 (rval2 |v6:11_st|))) 0.0) (and (<= (+ ?x2714 (* ?x1950 ?x210)) ?x2650) (<= ?x947 13.0)))))
 (let (($x3181 (and $x3029 (and (or (<= ?x1770 10.0) $x3158) (or (<= ?x1925 ?x1950) (<= ?x1619 ?x1903))))))
 (let ((?x2514 (* 18.0 |v13:4|)))
 (let (($x466 (<= (+ (+ (+ (* 13.0 |v3:14|) (* ?x2992 |v15:2|)) (* 4.0 ?x210)) ?x2514) 0.0)))
 (let ((?x3360 (+ (+ (+ (* 18.0 ?x424) ?x2976) (* 9.0 ?x424)) (* (- 4.0) |v14:3|))))
 (let ((?x1523 (* 0.0 |v4:13|)))
 (let ((?x1763 (+ (+ (+ (* ?x1950 (rval2 |v8:9_st|)) (* 13.0 (rval2 |v11:6_st|))) (* ?x845 |v14:3|)) ?x1523)))
 (let ((?x865 (* ?x527 |v1:16|)))
 (let ((?x1604 (+ (+ (+ (* 13.0 ?x3079) (* (- 2.0) |v13:4|)) (* ?x2650 (rval2 |v6:11_st|))) ?x865)))
 (let ((?x3320 (+ (+ (+ (* ?x356 |v17:0|) (* 18.0 |v2:15|)) (* 8.0 |v15:2|)) (* ?x485 |v14:3|))))
 (let ((?x1609 (rval2 |v6:11_st|)))
 (let ((?x1808 (* 7.0 ?x1609)))
 (let (($x2777 (<= (+ (+ (+ (* 12.0 |v4:13|) (* 2.0 |v4:13|)) (* ?x2650 |v17:0|)) ?x1808) 3.0)))
 (let (($x1160 (or (and $x2777 (<= ?x3320 16.0)) (and (<= ?x1604 16.0) (<= ?x1763 ?x1041)))))
 (let ((?x2866 (* 11.0 |v16:1|)))
 (let (($x519 (<= (+ (+ (+ (* 16.0 |v4:13|) (* (- 11.0) |v0:17|)) (* ?x2214 |v17:0|)) ?x2866) ?x356)))
 (let ((?x1396 (* 2.0 |v2:15|)))
 (let (($x2363 (<= (+ (+ (+ (* ?x171 ?x424) (* 7.0 |v0:17|)) (* ?x1138 |v0:17|)) ?x1396) ?x171)))
 (let ((?x3107 (+ (+ (+ (* 15.0 |v15:2|) (* 19.0 |v1:16|)) (* 12.0 ?x424)) (* (- 4.0) ?x424))))
 (let ((?x765 (- 4.0)))
 (let ((?x150 (* 6.0 ?x424)))
 (let (($x1169 (<= (+ (+ (+ (* 16.0 |v5:12|) (* 14.0 |v0:17|)) (* 12.0 |v13:4|)) ?x150) ?x765)))
 (let ((?x408 (+ (+ (+ (* (- 11.0) |v3:14|) (* ?x1782 |v15:2|)) (* 16.0 |v16:1|)) (* ?x539 ?x3079))))
 (let ((?x2272 (+ (+ (+ (* ?x765 |v17:0|) (* ?x356 ?x210)) (* ?x1138 |v1:16|)) (* 4.0 (rval2 |v8:9_st|)))))
 (let (($x1075 (<= (+ (+ (+ ?x1283 (* ?x485 |v12:5|)) (* ?x845 |v5:12|)) (* ?x527 |v17:0|)) 10.0)))
 (let (($x3242 (or $x1075 (and (or (<= ?x2272 ?x527) (<= ?x408 ?x171)) (or $x1169 (<= ?x3107 19.0))))))
 (let (($x2284 (or (or (and $x3242 $x2363) (and $x519 (or $x1160 (<= ?x3360 ?x1950)))) (or (or $x466 $x3181) (or (or $x322 $x2625) $x440)))))
 (let (($x785 (not (= |v6:11_st| (RMk1 val!7337)))))
 (let (($x1017 (not (= |v7:10_st| (RMk1 val!7336)))))
 (let (($x2912 (not (= |v8:9_st| (RMk1 val!7335)))))
 (let (($x2702 (not (= |v9:8_st| (RMk1 val!7334)))))
 (let (($x1978 (not (= |v10:7_st| (RMk1 val!7333)))))
 (let (($x891 (not (= |v11:6_st| (RMk1 val!7332)))))
 (and $x891 $x1978 $x2702 $x2912 $x1017 $x785 $x2284)))))))))))))))))))))))))))))))))))))))))))))))))))))))))))))))))))))))))))))))))))))))))))))))))
 )
 )
 )
 )
 )
 )
 )
 )
 )
 )
 )
 )
 )
 )
 )
 )
 )
 )
(check-sat)
